sat
(:max-memory        18.58
 :memory            17.62
 :num-allocs        63944528
 :rlimit-count      103294
 :sls-constraints   1183
 :sls-ddfw-flips    72987.00
 :sls-ddfw-reinits  4
 :sls-ddfw-restarts 91
 :sls-ddfw-shifts   31772.00
 :sls.euf-conflict  1183
 :time              0.10
 :total-time        0.10)
